
Log started (V12.6.3.0) Tue Jun  6 12:38:49 2017

New value for default parallel thread count: 1

Problem '/tmp/tmptWH4RA.pyomo.lp' read.
Read time = 0.00 sec. (0.14 ticks)

Problem name         : /tmp/tmptWH4RA.pyomo.lp
Objective sense      : Minimize
Variables            :    1562  [Nneg: 1537,  Binary: 24,  General Integer: 1]
Objective nonzeros   :       1
Linear constraints   :     778  [Less: 24,  Equal: 754]
  Nonzeros           :    5325
  RHS nonzeros       :      33

Variables            : Min LB: 0.000000         Max UB: 1.000000       
Objective nonzeros   : Min   : 1.000000         Max   : 1.000000       
Linear constraints   :
  Nonzeros           : Min   : 1.000000         Max   : 5400.180       
  RHS nonzeros       : Min   : 1.000000         Max   : 5023.240       
Tried aggregator 2 times.
MIP Presolve eliminated 728 rows and 1431 columns.
MIP Presolve added 1 rows and 1 columns.
Aggregator did 7 substitutions.
Reduced MIP has 44 rows, 125 columns, and 356 nonzeros.
Reduced MIP has 16 binaries, 1 generals, 0 SOSs, and 0 indicators.
Presolve time = 0.00 sec. (1.35 ticks)
Found incumbent of value 19.000000 after 0.00 sec. (1.73 ticks)
Probing fixed 0 vars, tightened 1 bounds.
Probing time = 0.00 sec. (0.03 ticks)
Tried aggregator 1 time.
MIP Presolve eliminated 0 rows and 1 columns.
Reduced MIP has 44 rows, 124 columns, and 354 nonzeros.
Reduced MIP has 15 binaries, 1 generals, 0 SOSs, and 0 indicators.
Presolve time = 0.00 sec. (0.15 ticks)
Probing time = 0.00 sec. (0.03 ticks)
Clique table members: 6.
MIP emphasis: balance optimality and feasibility.
MIP search method: dynamic search.
Parallel mode: none, using 1 thread.
Root relaxation solution time = 0.00 sec. (0.35 ticks)

        Nodes                                         Cuts/
   Node  Left     Objective  IInf  Best Integer    Best Bound    ItCnt     Gap

*     0+    0                           19.0000        5.0000            73.68%
      0     0        9.0260     6       19.0000        9.0260       64   52.49%
*     0+    0                           12.0000        9.0260            24.78%
*     0+    0                           11.0000        9.0260            17.95%
      0     0        cutoff             11.0000                    104    0.00%
Elapsed time = 0.00 sec. (3.30 ticks, tree = 0.01 MB, solutions = 3)

Cover cuts applied:  3
Implied bound cuts applied:  4
Flow cuts applied:  2
Mixed integer rounding cuts applied:  1
Gomory fractional cuts applied:  1

Root node processing (before b&c):
  Real time             =    0.00 sec. (3.37 ticks)
Sequential b&c:
  Real time             =    0.00 sec. (0.00 ticks)
                          ------------
Total (root+branch&cut) =    0.00 sec. (3.37 ticks)

Solution pool: 3 solutions saved.

MIP - Integer optimal solution:  Objective =  1.1000000000e+01
Solution time =    0.00 sec.  Iterations = 104  Nodes = 0
Deterministic time = 3.37 ticks  (756.85 ticks/sec)


Incumbent solution written to file '/tmp/tmpYhwSSj.cplex.sol'.

Log started (V12.6.3.0) Mon Jul 24 16:43:29 2017

New value for default parallel thread count: 1

Problem '/tmp/tmpdeDFsC.pyomo.lp' read.
Read time = 0.00 sec. (0.14 ticks)

Problem name         : /tmp/tmpdeDFsC.pyomo.lp
Objective sense      : Minimize
Variables            :    1562  [Nneg: 1537,  Binary: 24,  General Integer: 1]
Objective nonzeros   :       1
Linear constraints   :     778  [Less: 24,  Equal: 754]
  Nonzeros           :    5325
  RHS nonzeros       :      33

Variables            : Min LB: 0.000000         Max UB: 1.000000       
Objective nonzeros   : Min   : 1.000000         Max   : 1.000000       
Linear constraints   :
  Nonzeros           : Min   : 1.000000         Max   : 5400.180       
  RHS nonzeros       : Min   : 1.000000         Max   : 5023.240       
Tried aggregator 2 times.
MIP Presolve eliminated 728 rows and 1431 columns.
MIP Presolve added 1 rows and 1 columns.
Aggregator did 7 substitutions.
Reduced MIP has 44 rows, 125 columns, and 356 nonzeros.
Reduced MIP has 16 binaries, 1 generals, 0 SOSs, and 0 indicators.
Presolve time = 0.00 sec. (1.35 ticks)
Found incumbent of value 19.000000 after 0.00 sec. (1.73 ticks)
Probing fixed 0 vars, tightened 1 bounds.
Probing time = 0.00 sec. (0.03 ticks)
Tried aggregator 1 time.
MIP Presolve eliminated 0 rows and 1 columns.
Reduced MIP has 44 rows, 124 columns, and 354 nonzeros.
Reduced MIP has 15 binaries, 1 generals, 0 SOSs, and 0 indicators.
Presolve time = 0.00 sec. (0.15 ticks)
Probing time = 0.00 sec. (0.03 ticks)
Clique table members: 6.
MIP emphasis: balance optimality and feasibility.
MIP search method: dynamic search.
Parallel mode: none, using 1 thread.
Root relaxation solution time = 0.00 sec. (0.35 ticks)

        Nodes                                         Cuts/
   Node  Left     Objective  IInf  Best Integer    Best Bound    ItCnt     Gap

*     0+    0                           19.0000        5.0000            73.68%
      0     0        9.0260     6       19.0000        9.0260       64   52.49%
*     0+    0                           12.0000        9.0260            24.78%
*     0+    0                           11.0000        9.0260            17.95%
      0     0        cutoff             11.0000                    104    0.00%
Elapsed time = 0.00 sec. (3.30 ticks, tree = 0.01 MB, solutions = 3)

Cover cuts applied:  3
Implied bound cuts applied:  4
Flow cuts applied:  2
Mixed integer rounding cuts applied:  1
Gomory fractional cuts applied:  1

Root node processing (before b&c):
  Real time             =    0.00 sec. (3.37 ticks)
Sequential b&c:
  Real time             =    0.00 sec. (0.00 ticks)
                          ------------
Total (root+branch&cut) =    0.00 sec. (3.37 ticks)

Solution pool: 3 solutions saved.

MIP - Integer optimal solution:  Objective =  1.1000000000e+01
Solution time =    0.00 sec.  Iterations = 104  Nodes = 0
Deterministic time = 3.37 ticks  (735.06 ticks/sec)


Incumbent solution written to file '/tmp/tmpCcRNxT.cplex.sol'.

Log started (V12.6.3.0) Mon Jul 24 16:45:07 2017

New value for default parallel thread count: 1

Problem '/tmp/tmpz2M4GM.pyomo.lp' read.
Read time = 0.00 sec. (0.14 ticks)

Problem name         : /tmp/tmpz2M4GM.pyomo.lp
Objective sense      : Minimize
Variables            :    1562  [Nneg: 1537,  Binary: 24,  General Integer: 1]
Objective nonzeros   :       1
Linear constraints   :     778  [Less: 24,  Equal: 754]
  Nonzeros           :    5325
  RHS nonzeros       :      33

Variables            : Min LB: 0.000000         Max UB: 1.000000       
Objective nonzeros   : Min   : 1.000000         Max   : 1.000000       
Linear constraints   :
  Nonzeros           : Min   : 1.000000         Max   : 5400.180       
  RHS nonzeros       : Min   : 1.000000         Max   : 5023.240       
Tried aggregator 2 times.
MIP Presolve eliminated 728 rows and 1431 columns.
MIP Presolve added 1 rows and 1 columns.
Aggregator did 7 substitutions.
Reduced MIP has 44 rows, 125 columns, and 356 nonzeros.
Reduced MIP has 16 binaries, 1 generals, 0 SOSs, and 0 indicators.
Presolve time = 0.00 sec. (1.35 ticks)
Found incumbent of value 19.000000 after 0.00 sec. (1.73 ticks)
Probing fixed 0 vars, tightened 1 bounds.
Probing time = 0.00 sec. (0.03 ticks)
Tried aggregator 1 time.
MIP Presolve eliminated 0 rows and 1 columns.
Reduced MIP has 44 rows, 124 columns, and 354 nonzeros.
Reduced MIP has 15 binaries, 1 generals, 0 SOSs, and 0 indicators.
Presolve time = 0.00 sec. (0.15 ticks)
Probing time = 0.00 sec. (0.03 ticks)
Clique table members: 6.
MIP emphasis: balance optimality and feasibility.
MIP search method: dynamic search.
Parallel mode: none, using 1 thread.
Root relaxation solution time = 0.00 sec. (0.35 ticks)

        Nodes                                         Cuts/
   Node  Left     Objective  IInf  Best Integer    Best Bound    ItCnt     Gap

*     0+    0                           19.0000        5.0000            73.68%
      0     0        9.0260     6       19.0000        9.0260       64   52.49%
*     0+    0                           12.0000        9.0260            24.78%
*     0+    0                           11.0000        9.0260            17.95%
      0     0        cutoff             11.0000                    104    0.00%
Elapsed time = 0.00 sec. (3.30 ticks, tree = 0.01 MB, solutions = 3)

Cover cuts applied:  3
Implied bound cuts applied:  4
Flow cuts applied:  2
Mixed integer rounding cuts applied:  1
Gomory fractional cuts applied:  1

Root node processing (before b&c):
  Real time             =    0.00 sec. (3.37 ticks)
Sequential b&c:
  Real time             =    0.00 sec. (0.00 ticks)
                          ------------
Total (root+branch&cut) =    0.00 sec. (3.37 ticks)

Solution pool: 3 solutions saved.

MIP - Integer optimal solution:  Objective =  1.1000000000e+01
Solution time =    0.00 sec.  Iterations = 104  Nodes = 0
Deterministic time = 3.37 ticks  (717.24 ticks/sec)


Incumbent solution written to file '/tmp/tmpFeOpFi.cplex.sol'.

Log started (V12.6.3.0) Mon Jul 24 16:57:51 2017

New value for default parallel thread count: 1

Problem '/tmp/tmp1uB_fB.pyomo.lp' read.
Read time = 0.00 sec. (0.14 ticks)

Problem name         : /tmp/tmp1uB_fB.pyomo.lp
Objective sense      : Minimize
Variables            :    1562  [Nneg: 1537,  Binary: 24,  General Integer: 1]
Objective nonzeros   :       1
Linear constraints   :     778  [Less: 24,  Equal: 754]
  Nonzeros           :    5325
  RHS nonzeros       :      33

Variables            : Min LB: 0.000000         Max UB: 1.000000       
Objective nonzeros   : Min   : 1.000000         Max   : 1.000000       
Linear constraints   :
  Nonzeros           : Min   : 1.000000         Max   : 5400.180       
  RHS nonzeros       : Min   : 1.000000         Max   : 5023.240       
Tried aggregator 2 times.
MIP Presolve eliminated 728 rows and 1431 columns.
MIP Presolve added 1 rows and 1 columns.
Aggregator did 7 substitutions.
Reduced MIP has 44 rows, 125 columns, and 356 nonzeros.
Reduced MIP has 16 binaries, 1 generals, 0 SOSs, and 0 indicators.
Presolve time = 0.00 sec. (1.35 ticks)
Found incumbent of value 19.000000 after 0.00 sec. (1.73 ticks)
Probing fixed 0 vars, tightened 1 bounds.
Probing time = 0.00 sec. (0.03 ticks)
Tried aggregator 1 time.
MIP Presolve eliminated 0 rows and 1 columns.
Reduced MIP has 44 rows, 124 columns, and 354 nonzeros.
Reduced MIP has 15 binaries, 1 generals, 0 SOSs, and 0 indicators.
Presolve time = 0.00 sec. (0.15 ticks)
Probing time = 0.00 sec. (0.03 ticks)
Clique table members: 6.
MIP emphasis: balance optimality and feasibility.
MIP search method: dynamic search.
Parallel mode: none, using 1 thread.
Root relaxation solution time = 0.00 sec. (0.35 ticks)

        Nodes                                         Cuts/
   Node  Left     Objective  IInf  Best Integer    Best Bound    ItCnt     Gap

*     0+    0                           19.0000        5.0000            73.68%
      0     0        9.0260     6       19.0000        9.0260       64   52.49%
*     0+    0                           12.0000        9.0260            24.78%
*     0+    0                           11.0000        9.0260            17.95%
      0     0        cutoff             11.0000                    104    0.00%
Elapsed time = 0.00 sec. (3.30 ticks, tree = 0.01 MB, solutions = 3)

Cover cuts applied:  3
Implied bound cuts applied:  4
Flow cuts applied:  2
Mixed integer rounding cuts applied:  1
Gomory fractional cuts applied:  1

Root node processing (before b&c):
  Real time             =    0.00 sec. (3.37 ticks)
Sequential b&c:
  Real time             =    0.00 sec. (0.00 ticks)
                          ------------
Total (root+branch&cut) =    0.00 sec. (3.37 ticks)

Solution pool: 3 solutions saved.

MIP - Integer optimal solution:  Objective =  1.1000000000e+01
Solution time =    0.00 sec.  Iterations = 104  Nodes = 0
Deterministic time = 3.37 ticks  (749.75 ticks/sec)


Incumbent solution written to file '/tmp/tmpbtcRXe.cplex.sol'.

Log started (V12.6.3.0) Wed Jul 26 11:54:41 2017

New value for default parallel thread count: 1

Problem '/tmp/tmp6Jbiv5.pyomo.lp' read.
Read time = 0.00 sec. (0.14 ticks)

Problem name         : /tmp/tmp6Jbiv5.pyomo.lp
Objective sense      : Minimize
Variables            :    1562  [Nneg: 1537,  Binary: 24,  General Integer: 1]
Objective nonzeros   :       1
Linear constraints   :     778  [Less: 24,  Equal: 754]
  Nonzeros           :    5325
  RHS nonzeros       :      33

Variables            : Min LB: 0.000000         Max UB: 1.000000       
Objective nonzeros   : Min   : 1.000000         Max   : 1.000000       
Linear constraints   :
  Nonzeros           : Min   : 1.000000         Max   : 5400.180       
  RHS nonzeros       : Min   : 1.000000         Max   : 5023.240       
Tried aggregator 2 times.
MIP Presolve eliminated 728 rows and 1431 columns.
MIP Presolve added 1 rows and 1 columns.
Aggregator did 7 substitutions.
Reduced MIP has 44 rows, 125 columns, and 356 nonzeros.
Reduced MIP has 16 binaries, 1 generals, 0 SOSs, and 0 indicators.
Presolve time = 0.00 sec. (1.35 ticks)
Found incumbent of value 19.000000 after 0.01 sec. (1.73 ticks)
Probing fixed 0 vars, tightened 1 bounds.
Probing time = 0.00 sec. (0.03 ticks)
Tried aggregator 1 time.
MIP Presolve eliminated 0 rows and 1 columns.
Reduced MIP has 44 rows, 124 columns, and 354 nonzeros.
Reduced MIP has 15 binaries, 1 generals, 0 SOSs, and 0 indicators.
Presolve time = 0.00 sec. (0.15 ticks)
Probing time = 0.00 sec. (0.03 ticks)
Clique table members: 6.
MIP emphasis: balance optimality and feasibility.
MIP search method: dynamic search.
Parallel mode: none, using 1 thread.
Root relaxation solution time = 0.00 sec. (0.35 ticks)

        Nodes                                         Cuts/
   Node  Left     Objective  IInf  Best Integer    Best Bound    ItCnt     Gap

*     0+    0                           19.0000        5.0000            73.68%
      0     0        9.0260     6       19.0000        9.0260       64   52.49%
*     0+    0                           12.0000        9.0260            24.78%
*     0+    0                           11.0000        9.0260            17.95%
      0     0        cutoff             11.0000                    104    0.00%
Elapsed time = 0.01 sec. (3.30 ticks, tree = 0.01 MB, solutions = 3)

Cover cuts applied:  3
Implied bound cuts applied:  4
Flow cuts applied:  2
Mixed integer rounding cuts applied:  1
Gomory fractional cuts applied:  1

Root node processing (before b&c):
  Real time             =    0.01 sec. (3.37 ticks)
Sequential b&c:
  Real time             =    0.00 sec. (0.00 ticks)
                          ------------
Total (root+branch&cut) =    0.01 sec. (3.37 ticks)

Solution pool: 3 solutions saved.

MIP - Integer optimal solution:  Objective =  1.1000000000e+01
Solution time =    0.01 sec.  Iterations = 104  Nodes = 0
Deterministic time = 3.37 ticks  (287.66 ticks/sec)


Incumbent solution written to file '/tmp/tmp6H2LXe.cplex.sol'.
